
Welcome to IBM(R) ILOG(R) CPLEX(R) Interactive Optimizer 22.1.1.0
  with Simplex, Mixed Integer & Barrier Optimizers
5725-A06 5725-A29 5724-Y48 5724-Y49 5724-Y54 5724-Y55 5655-Y21
Copyright IBM Corp. 1988, 2022.  All Rights Reserved.

Type 'help' for a list of available commands.
Type 'help' followed by a command name for more
information on commands.

CPLEX> Selected objective sense:  MINIMIZE
Selected objective  name:  00000000
Selected RHS        name:  RHS1
Selected bound      name:  BOUND
Problem 'ee.mps' read.
Read time = 0.02 sec. (3.17 ticks)
CPLEX> New value for time limit in seconds: 7200
CPLEX> New value for parallel optimization mode: -1
CPLEX> New value for default parallel thread count: 40
CPLEX> New value for mixed integer optimality gap tolerance: 1e-13
CPLEX> Version identifier: 22.1.1.0 | 2022-11-28 | 9160aff4d
CPXPARAM_Threads                                 40
CPXPARAM_Parallel                                -1
CPXPARAM_TimeLimit                               7200
CPXPARAM_MIP_Tolerances_MIPGap                   1e-13
Found incumbent of value 0.000000 after 0.00 sec. (0.31 ticks)
Tried aggregator 2 times.
MIP Presolve eliminated 183 rows and 2745 columns.
MIP Presolve modified 6090 coefficients.
Aggregator did 713 substitutions.
Reduced MIP has 3636 rows, 7840 columns, and 28953 nonzeros.
Reduced MIP has 7840 binaries, 0 generals, 0 SOSs, and 0 indicators.
Presolve time = 0.07 sec. (69.14 ticks)
Probing time = 0.03 sec. (5.33 ticks)
Tried aggregator 1 time.
Detecting symmetries...
Reduced MIP has 3636 rows, 7840 columns, and 28953 nonzeros.
Reduced MIP has 7840 binaries, 0 generals, 0 SOSs, and 0 indicators.
Presolve time = 0.02 sec. (22.12 ticks)
Probing time = 0.02 sec. (5.12 ticks)
Clique table members: 18788.
MIP emphasis: balance optimality and feasibility.
MIP search method: dynamic search.
Parallel mode: opportunistic, using up to 40 threads.
Root relaxation solution time = 0.11 sec. (97.78 ticks)

        Nodes                                         Cuts/
   Node  Left     Objective  IInf  Best Integer    Best Bound    ItCnt     Gap

*     0+    0                            0.0000  -1.54000e+13              --- 
*     0+    0                      -4.80000e+12  -1.54000e+13           220.83%
*     0+    0                      -6.00000e+12  -1.54000e+13           156.67%
*     0+    0                      -6.99000e+12  -1.54000e+13           120.31%
*     0+    0                      -7.20000e+12  -1.54000e+13           113.89%
      0     0  -1.53900e+13    76  -7.20000e+12  -1.53900e+13     2108  113.75%
*     0+    0                      -1.53900e+13  -1.53900e+13             0.00%
*     0+    0                      -1.53900e+13  -1.53900e+13             0.00%
      0     0  -1.53900e+13   112  -1.53900e+13      Cuts: 68     2411    0.00%
      0     0  -1.53900e+13   147  -1.53900e+13      Cuts: 78     2485    0.00%
*     0+    0                      -1.53900e+13  -1.53900e+13             0.00%
*     0+    0                      -1.53900e+13  -1.53900e+13             0.00%
*     0+    0                      -1.53900e+13  -1.53900e+13             0.00%
*     0+    0                      -1.53900e+13  -1.53900e+13             0.00%
      0     0  -1.00000e+75     0  -1.53900e+13  -1.53900e+13     2485    0.00%

Repeating presolve.
Tried aggregator 2 times.
MIP Presolve eliminated 2526 rows and 5916 columns.
MIP Presolve added 66 rows and 0 columns.
MIP Presolve modified 80 coefficients.
Aggregator did 335 substitutions.
Reduced MIP has 841 rows, 1559 columns, and 5542 nonzeros.
Reduced MIP has 1559 binaries, 0 generals, 0 SOSs, and 0 indicators.
Presolve time = 0.02 sec. (20.09 ticks)
Probing fixed 1 vars, tightened 0 bounds.
Probing time = 0.01 sec. (13.94 ticks)
Tried aggregator 2 times.
Detecting symmetries...
MIP Presolve eliminated 2 rows and 6 columns.
MIP Presolve modified 3 coefficients.
Aggregator did 3 substitutions.
Reduced MIP has 836 rows, 1550 columns, and 5506 nonzeros.
Reduced MIP has 1550 binaries, 0 generals, 0 SOSs, and 0 indicators.
Presolve time = 0.01 sec. (9.49 ticks)
Represolve time = 0.05 sec. (59.48 ticks)
Probing time = 0.01 sec. (6.02 ticks)
Clique table members: 3735.
MIP emphasis: balance optimality and feasibility.
MIP search method: dynamic search.
Parallel mode: opportunistic, using up to 40 threads.
Root relaxation solution time = 0.01 sec. (8.97 ticks)

        Nodes                                         Cuts/
   Node  Left     Objective  IInf  Best Integer    Best Bound    ItCnt     Gap

*     0+    0                      -1.53900e+13  -1.53900e+13             0.00%
      0     0  -1.53900e+13    59  -1.53900e+13  -1.53900e+13     3001    0.00%
      0     0  -1.53900e+13    40  -1.53900e+13      Cuts: 63     3047    0.00%
      0     0  -1.53900e+13    66  -1.53900e+13      Cuts: 27     3075    0.00%
      0     0  -1.53900e+13    53  -1.53900e+13      Cuts: 54     3126    0.00%
      0     0  -1.53900e+13    29  -1.53900e+13      Cuts: 23     3152    0.00%
      0     0  -1.53900e+13    31  -1.53900e+13      Cuts: 11     3177    0.00%

Repeating presolve.
Tried aggregator 2 times.
MIP Presolve eliminated 647 rows and 1242 columns.
MIP Presolve modified 21 coefficients.
Aggregator did 28 substitutions.
Reduced MIP has 161 rows, 277 columns, and 890 nonzeros.
Reduced MIP has 277 binaries, 0 generals, 0 SOSs, and 0 indicators.
Presolve time = 0.00 sec. (2.71 ticks)
Probing fixed 2 vars, tightened 0 bounds.
Probing time = 0.00 sec. (0.22 ticks)
Tried aggregator 1 time.
Detecting symmetries...
MIP Presolve eliminated 1 rows and 2 columns.
Reduced MIP has 160 rows, 275 columns, and 881 nonzeros.
Reduced MIP has 275 binaries, 0 generals, 0 SOSs, and 0 indicators.
Presolve time = 0.00 sec. (0.62 ticks)
Represolve time = 0.02 sec. (11.36 ticks)
Probing time = 0.00 sec. (0.19 ticks)
Clique table members: 347.
MIP emphasis: balance optimality and feasibility.
MIP search method: dynamic search.
Parallel mode: opportunistic, using up to 40 threads.
Root relaxation solution time = 0.00 sec. (3.35 ticks)

        Nodes                                         Cuts/
   Node  Left     Objective  IInf  Best Integer    Best Bound    ItCnt     Gap

*     0+    0                      -1.53900e+13  -1.53900e+13             0.00%
      0     0  -1.53900e+13    24  -1.53900e+13  -1.53900e+13     3415    0.00%
      0     0  -1.53900e+13    14  -1.53900e+13      Cuts: 19     3452    0.00%
      0     0        cutoff        -1.53900e+13                   3477    0.00%
Elapsed time = 1.04 sec. (809.27 ticks, tree = 0.01 MB, solutions = 11)

Clique cuts applied:  40
Cover cuts applied:  26
Mixed integer rounding cuts applied:  4
Zero-half cuts applied:  17
Lift and project cuts applied:  4
Gomory fractional cuts applied:  3

Root node processing (before b&c):
  Real time             =    1.04 sec. (810.23 ticks)
Parallel b&c, 40 threads:
  Real time             =    0.00 sec. (0.00 ticks)
  Sync time (average)   =    0.00 sec.
  Wait time (average)   =    0.00 sec.
                          ------------
Total (root+branch&cut) =    1.04 sec. (810.23 ticks)

Solution pool: 11 solutions saved.

MIP - Integer optimal solution:  Objective = -1.5389999189e+13
Solution time =    1.07 sec.  Iterations = 3477  Nodes = 0
Deterministic time = 810.27 ticks  (756.55 ticks/sec)

CPLEX> Solution 'p12' written to file 'ee.sol'.
CPLEX> 